DATASET = "thpack7";
INSTANCE = "052";

WIDTH = 233;
HEIGHT = 220;
LENGTH = 587;

NO_OF_SHAPES = 20;
size = [|
  96,72,31 |
  75,72,47 |
  80,25,20 |
  114,94,61 |
  100,40,39 |
  72,51,48 |
  36,28,24 |
  85,58,35 |
  85,84,58 |
  95,48,24 |
  115,70,25 |
  108,49,42 |
  73,64,26 |
  68,54,35 |
  83,62,60 |
  57,56,43 |
  101,57,56 |
  56,48,42 |
  93,55,38 |
  53,53,53 |
|];

verticality = [|
  0,0,1 |
  1,1,1 |
  0,1,1 |
  1,1,1 |
  0,1,1 |
  1,1,1 |
  1,1,1 |
  0,1,1 |
  1,1,1 |
  0,0,1 |
  0,0,1 |
  0,1,1 |
  0,0,1 |
  1,1,1 |
  1,1,1 |
  1,1,1 |
  1,1,1 |
  1,1,1 |
  0,1,1 |
  1,1,1 |
|];

box_count = [
  6,
  6,
  7,
  9,
  9,
  6,
  3,
  5,
  5,
  8,
  3,
  8,
  7,
  3,
  6,
  11,
  12,
  4,
  9,
  11,
];
